c WARNING: for repeatability, setting FPU to use double precision
d VARIABLES            72356        
d CONSTRAINTS          289855       
c ============================[ Problem Statistics ]=============================
c |                                                                             |
c |  Number of variables:         72356                                         |
c |  Number of clauses:          289855                                         |
c |  Parse time:                   0.05 s                                       |
c |                                                                             |
c ============================[ Search Statistics ]==============================
c | Conflicts |          ORIGINAL         |          LEARNT          | Progress |
c |           |    Vars  Clauses Literals |    Limit  Clauses Lit/Cl |          |
c ===============================================================================
c |       100 |   53084   240225   587953 |    88082      100     46 | 26.635 % |
c |       250 |   53084   240225   587953 |    96890      250     48 | 26.635 % |
c |       475 |   53084   240225   587953 |   106579      475     71 | 26.635 % |
c |       812 |   53084   240225   587953 |   117237      812     66 | 26.635 % |
c |      1318 |   53084   240225   587953 |   128961     1318     62 | 26.635 % |
c |      2077 |   53084   240225   587953 |   141857     2077     70 | 26.635 % |
c |      3216 |   53084   240225   587953 |   156043     3216     79 | 26.635 % |
c |      4924 |   53084   240225   587953 |   171647     4924     82 | 26.635 % |
c |      7486 |   53084   240225   587953 |   188812     7486    117 | 26.635 % |
c |     11330 |   53084   240225   587953 |   207693    11330    125 | 26.635 % |
c |     17096 |   53084   240225   587953 |   228463    17096    118 | 26.635 % |
c |     25745 |   53084   240225   587953 |   251309    25745    106 | 26.635 % |
c |     38719 |   53084   240225   587953 |   276440    38719    104 | 26.635 % |
c |     58180 |   53084   240225   587953 |   304084    58180    107 | 26.635 % |
c |     87372 |   53084   240225   587953 |   334493    87372    118 | 26.635 % |
c |    131161 |   53084   240225   587953 |   367942   131161    136 | 26.635 % |
c |    196845 |   53084   240225   587953 |   404736   196845    134 | 26.635 % |
c |    295371 |   53084   240225   587953 |   445210   295371    133 | 26.635 % |
c |    443160 |   53084   240225   587953 |   489731   443160    135 | 26.635 % |
c |    664843 |   53084   240225   587953 |   538704   176644    127 | 26.635 % |
c |    997368 |   53084   240225   587953 |   592575   509169    132 | 26.635 % |
c |   1496156 |   53084   240225   587953 |   651832   420250    123 | 26.635 % |
c ===============================================================================
c restarts              : 3311
c conflicts             : 1717957        (958 /sec)
c decisions             : 3549712        (0.00 % random) (1979 /sec)
c propagations          : 1647497566     (918690 /sec)
c conflict literals     : 226902494      (34.86 % deleted)
d RESTARTS             3311
d FAILURES             1717957      
d NODES                3549712      
d BACKTRACKS           3549712      
d PROPAGATIONS         1647497566   
d NOGOODSIZE           132.08 
d MEMORY               522.00 
d TIME                 1793.31 

s UNKNOWN
